(declare-fun uf5 (Bool Bool Bool Bool Bool) Bool)
(declare-fun uf7 (Bool Bool Bool Bool Bool Bool Bool) Bool)
(declare-fun v3 () Bool)
(declare-fun v12 () Bool)
(push)
(check-sat)
(check-sat)
(check-sat)
(check-sat)
(check-sat)
(check-sat)
(assert (uf7 true true true true (distinct v3 v12) v12 v12))
(check-sat)
(check-sat)
(assert (uf5 v3 true true true true))
(pop)
(check-sat)
